c Grid graph 3x23
p edge 69 112
e 1 2
e 1 24
e 2 3
e 2 25
e 3 4
e 3 26
e 4 5
e 4 27
e 5 6
e 5 28
e 6 7
e 6 29
e 7 8
e 7 30
e 8 9
e 8 31
e 9 10
e 9 32
e 10 11
e 10 33
e 11 12
e 11 34
e 12 13
e 12 35
e 13 14
e 13 36
e 14 15
e 14 37
e 15 16
e 15 38
e 16 17
e 16 39
e 17 18
e 17 40
e 18 19
e 18 41
e 19 20
e 19 42
e 20 21
e 20 43
e 21 22
e 21 44
e 22 23
e 22 45
e 23 46
e 24 25
e 24 47
e 25 26
e 25 48
e 26 27
e 26 49
e 27 28
e 27 50
e 28 29
e 28 51
e 29 30
e 29 52
e 30 31
e 30 53
e 31 32
e 31 54
e 32 33
e 32 55
e 33 34
e 33 56
e 34 35
e 34 57
e 35 36
e 35 58
e 36 37
e 36 59
e 37 38
e 37 60
e 38 39
e 38 61
e 39 40
e 39 62
e 40 41
e 40 63
e 41 42
e 41 64
e 42 43
e 42 65
e 43 44
e 43 66
e 44 45
e 44 67
e 45 46
e 45 68
e 46 69
e 47 48
e 48 49
e 49 50
e 50 51
e 51 52
e 52 53
e 53 54
e 54 55
e 55 56
e 56 57
e 57 58
e 58 59
e 59 60
e 60 61
e 61 62
e 62 63
e 63 64
e 64 65
e 65 66
e 66 67
e 67 68
e 68 69
